
Gurobi 6.5.2 (win64) logging started 07/24/16 17:45:21


Gurobi 6.5.2 (win64) logging started 07/24/16 17:45:21

Optimize a model with 3695 rows, 823 columns and 9316 nonzeros
Coefficient statistics:
  Matrix range    [6e-08, 1e+03]
  Objective range [1e+00, 1e+00]
  Bounds range    [1e+00, 1e+00]
  RHS range       [6e-06, 3e+03]
Presolve removed 3445 rows and 567 columns
Presolve time: 0.00s
Presolved: 250 rows, 256 columns, 1065 nonzeros
Variable types: 256 continuous, 0 integer (0 binary)

Root relaxation: objective 2.210415e+01, 254 iterations, 0.00 seconds

    Nodes    |    Current Node    |     Objective Bounds      |     Work
 Expl Unexpl |  Obj  Depth IntInf | Incumbent    BestBd   Gap | It/Node Time

*    0     0               0      22.1041462   22.10415  0.00%     -    0s

Explored 0 nodes (254 simplex iterations) in 0.02 seconds
Thread count was 8 (of 8 available processors)

Optimal solution found (tolerance 1.00e-04)
Best objective 2.210414622874e+01, best bound 2.210414622874e+01, gap 0.0%

Wrote requested result file 'H1\instance25\\Results25EC_Sol6.lp'

